out.cnf
p cnf 33 16
-2 -5 0
2 5 0
-1 -6 0
1 6 0
-2 -7 0
2 7 0
-3 -8 0
3 8 0
1 -9 0
5 -9 0
-1 -5 9 0
9 -10 0
3 -10 0
-9 -3 10 0
6 -11 0
7 -11 0
-6 -7 11 0
1 -12 0
2 -12 0
-1 -2 12 0
12 -13 0
8 -13 0
-12 -8 13 0
13 -14 0
4 -14 0
-13 -4 14 0
-10 15 0
-11 15 0
10 11 -15 0
-15 16 0
-14 16 0
15 14 -16 0
16 0
