out.txt
18 1 2 8 9 14 3 17 15 4 16 -6 -7 -11 -5 -12 -10 -13 0
18 1 2 8 9 14 3 15 17 16 5 10 -6 -7 -11 -4 -13 -12 0
18 1 2 8 9 14 7 17 15 4 16 -6 -3 -11 -12 -13 -5 -10 0
18 1 2 8 9 14 7 15 17 16 5 10 -6 -3 -11 -12 -4 -13 0
18 1 6 3 11 4 12 17 13 16 -2 -8 -9 -14 -7 -10 -5 -15 0
18 1 6 7 11 4 -2 -8 -9 -14 -3 -10 -12 -5 -13 -15 -16 -17 0
18 1 6 7 11 5 -2 -8 -9 -14 -3 -10 -12 -4 -13 -15 -16 -17 0
18 2 7 4 -1 -8 -9 -11 -14 -6 -10 -12 -3 -13 -15 -5 -16 -17 0
18 2 7 5 -1 -8 -9 -11 -14 -6 -10 -12 -3 -13 -15 -4 -16 -17 0
18 6 7 4 -1 -8 -9 -11 -14 -2 -10 -12 -3 -13 -15 -5 -16 -17 0
18 6 7 5 -1 -8 -9 -11 -14 -2 -10 -12 -3 -13 -15 -4 -16 -17 0
